
Value of objective function: 4

Actual values of the variables:
a1                              2
a2                              2
X11                             1
X21                             1
X31                             0
X32                             1
X41                             0
X42                             0
X43                             1
X51                             0
X52                             0
X53                             0
X54                             1
X61                             0
X62                             0
X63                             0
X64                             0
X65                             1
X71                             0
X72                             0
X73                             0
X74                             0
X75                             0
X76                             1
X81                             0
X82                             0
X83                             0
X84                             0
X85                             0
X86                             0
X87                             1
X91                             0
X92                             0
X93                             0
X94                             0
X95                             0
X96                             0
X97                             0
X98                             1
X101                            0
X102                            0
X103                            0
X104                            0
X105                            0
X106                            0
X107                            0
X108                            0
X109                            1
X111                            0
X112                            1
X113                            0
X114                            0
X115                            0
X116                            0
X117                            0
X118                            0
X119                            0
X1110                           0
X122                            1
X133                            1
X144                            1
X155                            1
X166                            1
X177                            1
X188                            1
X199                            1
X2010                           1
X2111                           1
X222                            1
X233                            1
X244                            1
X255                            1
X266                            1
X277                            1
X288                            1
X299                            1
X3010                           1
X3111                           1
